solution status: optimal solution found
objective value:                     164436.738336738
d11(0,0)                                            1 	(obj:0)
d11(1,1)                                            1 	(obj:0)
d11(1,2)                                            1 	(obj:0)
d11(2,4)                                            1 	(obj:0)
d11(2,5)                                            1 	(obj:0)
d11(2,7)                                            1 	(obj:0)
d11(2,8)                                            1 	(obj:0)
d11(2,10)                                           1 	(obj:0)
d11(2,11)                                           1 	(obj:0)
d11(3,13)                                           1 	(obj:0)
d11(3,16)                                           1 	(obj:0)
d11(3,17)                                           1 	(obj:0)
d11(3,19)                                           1 	(obj:0)
d11(3,20)                                           1 	(obj:0)
d11(3,22)                                           1 	(obj:0)
d11(3,23)                                           1 	(obj:0)
d11(3,25)                                           1 	(obj:0)
d11(3,26)                                           1 	(obj:0)
d11(3,28)                                           1 	(obj:0)
d11(3,29)                                           1 	(obj:0)
d11(3,31)                                           1 	(obj:0)
d11(3,32)                                           1 	(obj:0)
d11(3,34)                                           1 	(obj:0)
d11(3,35)                                           1 	(obj:0)
d11(3,37)                                           1 	(obj:0)
d11(3,38)                                           1 	(obj:0)
d11(4,40)                                           1 	(obj:0)
d11(4,41)                                           1 	(obj:0)
d11(4,42)                                           1 	(obj:0)
d11(4,43)                                           1 	(obj:0)
d11(4,44)                                           1 	(obj:0)
d11(4,45)                                           1 	(obj:0)
d11(4,46)                                           1 	(obj:0)
d11(4,47)                                           1 	(obj:0)
d11(4,48)                                           1 	(obj:0)
d11(4,49)                                           1 	(obj:0)
d11(4,50)                                           1 	(obj:0)
d11(4,51)                                           1 	(obj:0)
d11(4,52)                                           1 	(obj:0)
d11(4,53)                                           1 	(obj:0)
d11(4,54)                                           1 	(obj:0)
d11(4,55)                                           1 	(obj:0)
d11(4,56)                                           1 	(obj:0)
d11(4,57)                                           1 	(obj:0)
d11(4,58)                                           1 	(obj:0)
d11(4,59)                                           1 	(obj:0)
d11(4,60)                                           1 	(obj:0)
d11(4,61)                                           1 	(obj:0)
d11(4,62)                                           1 	(obj:0)
d11(4,63)                                           1 	(obj:0)
d11(4,64)                                           1 	(obj:0)
d11(4,65)                                           1 	(obj:0)
d11(4,66)                                           1 	(obj:0)
d11(4,67)                                           1 	(obj:0)
d11(4,68)                                           1 	(obj:0)
d11(4,69)                                           1 	(obj:0)
d11(4,70)                                           1 	(obj:0)
d11(4,71)                                           1 	(obj:0)
d11(4,72)                                           1 	(obj:0)
d11(4,73)                                           1 	(obj:0)
d11(4,74)                                           1 	(obj:0)
d11(4,75)                                           1 	(obj:0)
d11(4,76)                                           1 	(obj:0)
d11(4,77)                                           1 	(obj:0)
d11(4,78)                                           1 	(obj:0)
d11(4,79)                                           1 	(obj:0)
d11(4,80)                                           1 	(obj:0)
d11(4,81)                                           1 	(obj:0)
d11(4,82)                                           1 	(obj:0)
d11(4,83)                                           1 	(obj:0)
d11(4,84)                                           1 	(obj:0)
d11(4,85)                                           1 	(obj:0)
d11(4,86)                                           1 	(obj:0)
d11(4,87)                                           1 	(obj:0)
d11(4,88)                                           1 	(obj:0)
d11(4,89)                                           1 	(obj:0)
d11(4,90)                                           1 	(obj:0)
d11(4,91)                                           1 	(obj:0)
d11(4,92)                                           1 	(obj:0)
d11(4,94)                                           1 	(obj:0)
d11(4,95)                                           1 	(obj:0)
d11(4,96)                                           1 	(obj:0)
d11(4,97)                                           1 	(obj:0)
d11(4,98)                                           1 	(obj:0)
d11(4,99)                                           1 	(obj:0)
d11(4,100)                                          1 	(obj:0)
d11(4,101)                                          1 	(obj:0)
d11(4,102)                                          1 	(obj:0)
d11(4,103)                                          1 	(obj:0)
d11(4,104)                                          1 	(obj:0)
d11(4,105)                                          1 	(obj:0)
d11(4,106)                                          1 	(obj:0)
d11(4,107)                                          1 	(obj:0)
d11(4,108)                                          1 	(obj:0)
d11(4,109)                                          1 	(obj:0)
d11(4,110)                                          1 	(obj:0)
d11(4,111)                                          1 	(obj:0)
d11(4,112)                                          1 	(obj:0)
d11(4,113)                                          1 	(obj:0)
d11(4,114)                                          1 	(obj:0)
d11(4,115)                                          1 	(obj:0)
d11(4,116)                                          1 	(obj:0)
d11(4,117)                                          1 	(obj:0)
d11(4,118)                                          1 	(obj:0)
d11(4,119)                                          1 	(obj:0)
d11(4,120)                                          1 	(obj:0)
d12(1,3)                                            1 	(obj:0)
d12(3,15)                                           1 	(obj:0)
d12(3,18)                                           1 	(obj:0)
d12(3,21)                                           1 	(obj:0)
d12(3,24)                                           1 	(obj:0)
d12(3,27)                                           1 	(obj:0)
d12(3,30)                                           1 	(obj:0)
d12(3,33)                                           1 	(obj:0)
d12(3,36)                                           1 	(obj:0)
d12(3,39)                                           1 	(obj:0)
d21(4,40)                                           1 	(obj:0)
d21(4,41)                                           1 	(obj:0)
d21(4,42)                                           1 	(obj:0)
d21(4,43)                                           1 	(obj:0)
d21(4,44)                                           1 	(obj:0)
d21(4,46)                                           1 	(obj:0)
d21(4,47)                                           1 	(obj:0)
d21(4,49)                                           1 	(obj:0)
d21(4,50)                                           1 	(obj:0)
d21(4,52)                                           1 	(obj:0)
d21(4,53)                                           1 	(obj:0)
d21(4,55)                                           1 	(obj:0)
d21(4,58)                                           1 	(obj:0)
d21(4,67)                                           1 	(obj:0)
d21(4,68)                                           1 	(obj:0)
d21(4,70)                                           1 	(obj:0)
d21(4,71)                                           1 	(obj:0)
d21(4,73)                                           1 	(obj:0)
d21(4,76)                                           1 	(obj:0)
d21(4,77)                                           1 	(obj:0)
d21(4,79)                                           1 	(obj:0)
d21(4,85)                                           1 	(obj:0)
d21(4,94)                                           1 	(obj:0)
d21(4,95)                                           1 	(obj:0)
d21(4,97)                                           1 	(obj:0)
d21(4,103)                                          1 	(obj:0)
STE(1,1)                             11286.2180066667 	(obj:0)
STE(0,0)                                        14175 	(obj:0)
STE(1,2)                                  12282.98401 	(obj:0)
STE(1,3)                             13279.0064513204 	(obj:0)
STE(2,4)                             7937.99980000001 	(obj:0)
STE(2,5)                              8934.7658033333 	(obj:0)
STE(2,6)                             10152.2180066667 	(obj:0)
STE(2,7)                              8934.7658033333 	(obj:0)
STE(2,8)                             9931.53180666659 	(obj:0)
STE(2,9)                                  11148.98401 	(obj:0)
STE(2,10)                            9930.78824465375 	(obj:0)
STE(2,11)                             10927.554247987 	(obj:0)
STE(2,12)                            12145.0064513204 	(obj:0)
STE(3,13)                            5807.23379666666 	(obj:0)
STE(3,14)                            6803.99980000001 	(obj:0)
STE(3,15)                               7716.56313385 	(obj:0)
STE(3,16)                            6803.99979999995 	(obj:0)
STE(3,17)                             7800.7658033333 	(obj:0)
STE(3,18)                            8713.32913718329 	(obj:0)
STE(3,19)                            8021.45200333334 	(obj:0)
STE(3,20)                            9018.21800666663 	(obj:0)
STE(3,21)                            9930.78134051668 	(obj:0)
STE(3,22)                            6803.99979999995 	(obj:0)
STE(3,23)                             7800.7658033333 	(obj:0)
STE(3,24)                            8713.32913718329 	(obj:0)
STE(3,25)                            7800.76580333324 	(obj:0)
STE(3,26)                            8797.53180666659 	(obj:0)
STE(3,27)                            9710.09514051658 	(obj:0)
STE(3,28)                            9018.21800666663 	(obj:0)
STE(3,29)                            10014.9840099999 	(obj:0)
STE(3,30)                              10927.54734385 	(obj:0)
STE(3,31)                             7800.0222413204 	(obj:0)
STE(3,32)                            8796.78824465375 	(obj:0)
STE(3,33)                            9709.35157850374 	(obj:0)
STE(3,34)                            8796.78824465369 	(obj:0)
STE(3,35)                            9793.55424798704 	(obj:0)
STE(3,36)                             10706.117581837 	(obj:0)
STE(3,37)                            10014.2404479871 	(obj:0)
STE(3,38)                            11011.0064513204 	(obj:0)
STE(3,39)                            11923.5697851704 	(obj:0)
STE(4,40)                            2459.01559000003 	(obj:0)
STE(4,41)                            3455.78159333332 	(obj:0)
STE(4,42)                            4673.23379666669 	(obj:0)
STE(4,43)                            3455.78159333338 	(obj:0)
STE(4,44)                            4452.54759666667 	(obj:0)
STE(4,45)                            5669.99980000001 	(obj:0)
STE(4,46)                            4368.34492718336 	(obj:0)
STE(4,47)                            5365.11093051665 	(obj:0)
STE(4,48)                               6582.56313385 	(obj:0)
STE(4,49)                            3455.78159333332 	(obj:0)
STE(4,50)                            4452.54759666661 	(obj:0)
STE(4,51)                            5669.99979999995 	(obj:0)
STE(4,52)                            4452.54759666667 	(obj:0)
STE(4,53)                            5449.31359999996 	(obj:0)
STE(4,54)                             6666.7658033333 	(obj:0)
STE(4,55)                            5365.11093051665 	(obj:0)
STE(4,56)                            6361.87693384995 	(obj:0)
STE(4,57)                            7579.32913718332 	(obj:0)
STE(4,58)                            4673.23379666671 	(obj:0)
STE(4,59)                                   5669.9998 	(obj:0)
STE(4,60)                            6887.45200333334 	(obj:0)
STE(4,61)                                   5669.9998 	(obj:0)
STE(4,62)                            6666.76580333329 	(obj:0)
STE(4,63)                            7884.21800666657 	(obj:0)
STE(4,64)                            6582.56313385004 	(obj:0)
STE(4,65)                            7579.32913718334 	(obj:0)
STE(4,66)                            8796.78134051671 	(obj:0)
STE(4,67)                            3455.78159333332 	(obj:0)
STE(4,68)                            4452.54759666661 	(obj:0)
STE(4,69)                            5669.99979999999 	(obj:0)
STE(4,70)                            4452.54759666667 	(obj:0)
STE(4,71)                            5449.31359999996 	(obj:0)
STE(4,72)                             6666.7658033333 	(obj:0)
STE(4,73)                            5365.11093051665 	(obj:0)
STE(4,74)                            6361.87693384995 	(obj:0)
STE(4,75)                            7579.32913718323 	(obj:0)
STE(4,76)                            4452.54759666661 	(obj:0)
STE(4,77)                             5449.3135999999 	(obj:0)
STE(4,78)                            6666.76580333324 	(obj:0)
STE(4,79)                            5449.31359999996 	(obj:0)
STE(4,80)                            6446.07960333325 	(obj:0)
STE(4,81)                            7663.53180666659 	(obj:0)
STE(4,82)                            6361.87693384995 	(obj:0)
STE(4,83)                            7358.64293718324 	(obj:0)
STE(4,84)                            8576.09514051658 	(obj:0)
STE(4,85)                                   5669.9998 	(obj:0)
STE(4,86)                            6666.76580333329 	(obj:0)
STE(4,87)                            7884.21800666667 	(obj:0)
STE(4,88)                            6666.76580333329 	(obj:0)
STE(4,89)                            7663.53180666658 	(obj:0)
STE(4,90)                            8880.98400999999 	(obj:0)
STE(4,91)                            7579.32913718334 	(obj:0)
STE(4,92)                            8576.09514051663 	(obj:0)
STE(4,93)                            9793.54734384997 	(obj:0)
STE(4,94)                            4451.80403465377 	(obj:0)
STE(4,95)                            5448.57003798706 	(obj:0)
STE(4,96)                             6666.0222413204 	(obj:0)
STE(4,97)                            5448.57003798712 	(obj:0)
STE(4,98)                            6445.33604132041 	(obj:0)
STE(4,99)                            7662.78824465379 	(obj:0)
STE(4,100)                           6361.13337183711 	(obj:0)
STE(4,101)                            7357.8993751704 	(obj:0)
STE(4,102)                           8575.35157850374 	(obj:0)
STE(4,103)                           5448.57003798706 	(obj:0)
STE(4,104)                           6445.33604132035 	(obj:0)
STE(4,105)                           7662.78824465373 	(obj:0)
STE(4,106)                           6445.33604132041 	(obj:0)
STE(4,107)                            7442.1020446537 	(obj:0)
STE(4,108)                           8659.55424798704 	(obj:0)
STE(4,109)                            7357.8993751704 	(obj:0)
STE(4,110)                           8354.66537850369 	(obj:0)
STE(4,111)                           9572.11758183707 	(obj:0)
STE(4,112)                           6666.02224132045 	(obj:0)
STE(4,113)                           7662.78824465374 	(obj:0)
STE(4,114)                           8880.24044798712 	(obj:0)
STE(4,115)                            7662.7882446538 	(obj:0)
STE(4,116)                           8659.55424798709 	(obj:0)
STE(4,117)                           9877.00645132037 	(obj:0)
STE(4,118)                           8575.35157850379 	(obj:0)
STE(4,119)                           9572.11758183708 	(obj:0)
STE(4,120)                           10789.5697851705 	(obj:0)
y1(4,100)                            1992.79638599997 	(obj:0)
y1(4,101)                            1095.70698300001 	(obj:0)
y1(4,103)                            1992.79638599997 	(obj:0)
y1(4,104)                            1095.70698300001 	(obj:0)
y1(4,106)                            1992.79638599997 	(obj:0)
y1(4,107)                            1095.70698300001 	(obj:0)
y1(4,109)                            1992.79638599997 	(obj:0)
y1(4,110)                            1095.70698300001 	(obj:0)
y1(4,112)                            1992.79638599997 	(obj:0)
y1(4,113)                            1095.70698300001 	(obj:0)
y1(4,115)                            1992.79638599997 	(obj:0)
y1(4,116)                            1095.70698300001 	(obj:0)
y1(4,118)                            1992.79638599997 	(obj:0)
y1(4,119)                            1095.70698300001 	(obj:0)
WB(3)                                 3399.3204933139 	(obj:0)
AVE(3)                                3399.3204933139 	(obj:0)
AVE(4)                               3353.21046544222 	(obj:0)
WG(1)                                3134.60043707458 	(obj:10)
WG(4)                                3353.21046544222 	(obj:10)
BG(1)                                 939.38669659882 	(obj:10)
BG(2)                                      4495.91835 	(obj:10)
BG(3)                                         3377.85 	(obj:10)
BG(4)                                1142.70788455778 	(obj:10)
AVE(1)                               3134.60043707458 	(obj:0)
WB(2)                                3326.45170866643 	(obj:0)
AVE(2)                               3326.45170866643 	(obj:0)
y1(1,1)                              1579.30379399998 	(obj:0)
y1(1,2)                              682.214391000015 	(obj:0)
y1(2,4)                              1992.79638600001 	(obj:0)
y1(2,5)                              1095.70698300005 	(obj:0)
y1(2,7)                              1992.79638600001 	(obj:0)
y1(2,8)                              1095.70698300005 	(obj:0)
y1(2,10)                             1992.79638600001 	(obj:0)
y1(2,11)                             1095.70698300005 	(obj:0)
y1(3,13)                             897.089403000015 	(obj:0)
y1(3,16)                             897.089403000015 	(obj:0)
y1(3,19)                             897.089403000015 	(obj:0)
y1(3,22)                             897.089403000015 	(obj:0)
y1(3,25)                             897.089403000015 	(obj:0)
y1(3,28)                             897.089403000015 	(obj:0)
y1(3,31)                             897.089403000015 	(obj:0)
y1(3,34)                             897.089403000015 	(obj:0)
y1(3,37)                             897.089403000015 	(obj:0)
y1(4,40)                             1992.79638599997 	(obj:0)
y1(4,41)                             1095.70698300001 	(obj:0)
y1(4,43)                             1992.79638599997 	(obj:0)
y1(4,44)                             1095.70698300001 	(obj:0)
y1(4,46)                             1992.79638599997 	(obj:0)
y1(4,47)                             1095.70698300001 	(obj:0)
y1(4,49)                             1992.79638599997 	(obj:0)
y1(4,50)                             1095.70698300001 	(obj:0)
y1(4,52)                             1992.79638599997 	(obj:0)
y1(4,53)                             1095.70698300001 	(obj:0)
y1(4,55)                             1992.79638599997 	(obj:0)
y1(4,56)                             1095.70698300001 	(obj:0)
y1(4,58)                             1992.79638599997 	(obj:0)
y1(4,59)                             1095.70698300001 	(obj:0)
y1(4,61)                             1992.79638599997 	(obj:0)
y1(4,62)                             1095.70698300001 	(obj:0)
y1(4,64)                             1992.79638599997 	(obj:0)
y1(4,65)                             1095.70698300001 	(obj:0)
y1(4,67)                             1992.79638599997 	(obj:0)
y1(4,68)                             1095.70698300001 	(obj:0)
y1(4,70)                             1992.79638599997 	(obj:0)
y1(4,71)                             1095.70698300001 	(obj:0)
y1(4,73)                             1992.79638599997 	(obj:0)
y1(4,74)                             1095.70698300001 	(obj:0)
y1(4,76)                             1992.79638599997 	(obj:0)
y1(4,77)                             1095.70698300001 	(obj:0)
y1(4,79)                             1992.79638599997 	(obj:0)
y1(4,80)                             1095.70698300001 	(obj:0)
y1(4,82)                             1992.79638599997 	(obj:0)
y1(4,83)                             1095.70698300001 	(obj:0)
y1(4,85)                             1992.79638599997 	(obj:0)
y1(4,86)                             1095.70698300001 	(obj:0)
y1(4,88)                             1992.79638599997 	(obj:0)
y1(4,89)                             1095.70698300001 	(obj:0)
y1(4,91)                             1992.79638599997 	(obj:0)
y1(4,92)                             1095.70698300001 	(obj:0)
y1(4,94)                             1992.79638599997 	(obj:0)
y1(4,95)                             1095.70698300001 	(obj:0)
y1(4,97)                             1992.79638599997 	(obj:0)
y1(4,98)                             1095.70698300001 	(obj:0)
y2(1,3)                              250.533106653091 	(obj:0)
y2(3,15)                             960.592982999986 	(obj:0)
y2(3,18)                             960.592982999986 	(obj:0)
y2(3,21)                             960.592982999986 	(obj:0)
y2(3,24)                             960.592982999986 	(obj:0)
y2(3,27)                             960.592982999986 	(obj:0)
y2(3,30)                             960.592982999986 	(obj:0)
y2(3,33)                             960.592982999986 	(obj:0)
y2(3,36)                             960.592982999986 	(obj:0)
y2(3,39)                             960.592982999986 	(obj:0)
